2198.62 0
0 96 90 108 13 14 24 33 23 37 46 60 77 68 71 110 100 107 106 0
0 88 91 117 5 11 19 30 34 21 39 51 64 66 75 76 98 0
0 120 102 99 52 54 65 43 50 16 22 31 35 20 8 94 86 111 82 0
0 113 3 4 9 7 17 28 42 47 57 61 53 74 115 97 114 87 0
0 104 103 116 70 72 63 45 48 49 32 36 26 6 10 109 18 92 93 0
0 95 69 78 80 56 58 62 59 40 25 27 15 2 83 112 119 0
0 105 101 67 73 79 55 38 41 44 29 12 1 118 84 85 89 81 0
